10J3M/DAT/10J3MUTA-17.dat
10 3
14.9176 222.5348
45.9897 2115.0525
17.2285 296.8212
47.1012 2218.523
39.2343 1539.3303
6.8446 46.8485
5.1754 26.7848
37.1397 1379.3573
24.7835 614.2219
26.0259 677.3475
2284.2055