10J3M/SOL/10J3MUTA-17.sol
solution status: optimal solution found
objective value:                     71.9703347057484
x#1#2                                               1 	(obj:0)
x#2#2                               0.439905894091649 	(obj:0)
x#2#3                               0.529039415776545 	(obj:0)
x#3#1                                0.63306707915484 	(obj:0)
x#3#3                                0.36693292084516 	(obj:0)
x#5#1                               0.435313960807999 	(obj:0)
x#5#2                               0.564686039192001 	(obj:0)
x#6#1                                               1 	(obj:0)
x#7#2                                               1 	(obj:0)
x#8#1                                               1 	(obj:0)
x#9#2                               0.382961774598865 	(obj:0)
x#9#3                               0.617038225401135 	(obj:0)
x#10#3                                              1 	(obj:0)
z                                    71.9703347057484 	(obj:1)
